c 2 __LINUXTHREADS_OLD__
c 4 __UCLIBC_HAS_GNU_GLOB__
c 1 __UCLIBC_HAS_THREADS_NATIVE__
c 5 __UCLIBC_HAS_GLOB__
c 3 __UCLIBC_HAS_LFS__
c 7 __MALLOC_STANDARD__
c 8 __LINUXTHREADS_NEW__
c 6 __UCLIBC_HAS_THREADS__
p cnf 8 1
1 -4 -3 -5 2 -6 -7 8 1
